Route #1: 18 48 21 23 25 24
Route #2: 82 9 59 86 52 99 0 13 15 16 17 47 14 53
Route #3: 66 64 83 57 65 90 0 91 56 92 80 0 34 26 32 50
Route #4: 95 85 33 30 28 27 29 31 62 67 0 87 97 75 58 77 74
Route #5: 20 19 49 22 0 88 78 73 79 60
Route #6: 2 45 46 8 7 6 0 69 55 70 61 68 0 43 36 35 37 39
Route #7: 51 76 89 63 84 0 4 5 3 1 100
Route #8: 42 44 40 38 41 0 98 12 11 10 0 81 54 72 71 93 94 96
Cost: 16028
Optimal: False
